171 5100
5 6 8 11 12 13 14 15 17 18 19 25 26 27 28 35 36 41 42 43 48 50 51 52 54 55 56 62 63 64 89 135 136 141 142 143 148 150 151 152 154 155 156 162 163 164
3 4 5 6 7 8 9 11 13 21 29 30 31 32 34 36 37 38 39 41 43 44 45 46 48 66 67 68 69 71 80 136 137 138 139 141 143 144 145 146 148 166 167 168 169 171
2 4 5 6 8 9 10 11 13 22 29 31 32 33 34 36 38 39 40 41 43 45 46 47 48 66 68 69 70 71 81 136 138 139 140 141 143 145 146 147 148 166 168 169 170 171
2 3 5 6 7 8 10 11 13 23 29 30 32 33 34 36 37 39 40 41 43 44 46 47 48 66 67 69 70 71 82 136 137 139 140 141 143 144 146 147 148 166 167 169 170 171
1 2 3 4 8 9 10 11 12 13 14 15 17 18 19 21 22 23 29 35 36 38 39 40 42 43 45 46 47 50 51 52 54 55 56 58 59 60 93 135 136 138 139 140 142 143 145 146 147 150 151 152 154 155 156 158 159 160
1 2 3 4 8 9 10 11 13 26 28 31 32 33 34 35 38 39 40 41 42 45 46 47 48 65 68 69 70 71 85 135 138 139 140 141 142 145 146 147 148 165 168 169 170 171
2 4 9 10 13 16 17 19 20 21 23 24 25 27 30 37 38 40 44 45 47 53 54 56 57 58 60 61 62 64 95 137 138 140 144 145 147 153 154 156 157 158 160 161 162 164
1 2 3 4 5 6 9 10 13 18 28 29 31 32 33 35 36 38 39 40 42 43 45 46 47 65 66 68 69 70 77 135 136 138 139 140 142 143 145 146 147 165 166 168 169 170
2 3 5 6 7 8 10 11 13 16 17 18 20 21 22 24 25 26 31 36 37 38 39 41 43 44 45 46 48 53 54 55 57 58 59 61 62 63 96 136 137 138 139 141 143 144 145 146 148 153 154 155 157 158 159 161 162 163
3 4 5 6 7 8 9 11 13 16 18 19 20 22 23 24 26 27 33 36 37 39 40 41 43 44 46 47 48 53 55 56 57 59 60 61 63 64 98 136 137 139 140 141 143 144 146 147 148 153 155 156 157 159 160 161 163 164
1 2 3 4 5 6 9 10 12 13 14 15 21 22 23 25 26 27 34 35 38 39 40 41 42 45 46 47 48 50 51 52 58 59 60 62 63 64 101 135 138 139 140 141 142 145 146 147 148 150 151 152 158 159 160 162 163 164
1 5 11 14 15 16 17 18 21 24 25 26 28 29 34 42 43 48 49 50 51 53 54 55 61 62 63 65 66 71 104 142 143 148 149 150 151 153 154 155 161 162 163 165 166 171
1 2 3 4 5 6 7 8 9 10 11 17 18 19 21 22 23 25 26 27 32 36 38 39 40 41 43 45 46 47 48 54 55 56 58 59 60 62 63 64 97 136 138 139 140 141 143 145 146 147 148 154 155 156 158 159 160 162 163 164
1 5 11 12 15 17 18 19 22 25 26 27 28 29 34 42 43 48 50 51 52 54 55 56 62 63 64 65 66 71 105 142 143 148 150 151 152 154 155 156 162 163 164 165 166 171
1 5 11 12 14 16 18 19 23 24 26 27 28 29 34 42 43 48 49 51 52 53 55 56 61 63 64 65 66 71 106 142 143 148 149 151 152 153 155 156 161 163 164 165 166 171
7 9 10 12 15 17 18 19 20 21 23 24 30 31 33 44 45 47 49 50 52 53 54 56 57 58 60 67 68 70 107 144 145 147 149 150 152 153 154 156 157 158 160 167 168 170
1 5 7 9 12 13 14 16 18 19 20 21 22 25 28 29 30 31 32 42 43 44 45 46 49 50 51 53 54 55 57 58 59 65 66 67 68 69 108 142 143 144 145 146 149 150 151 153 154 155 157 158 159 165 166 167 168 169
1 5 8 9 10 12 13 14 15 16 17 19 21 22 23 26 28 29 31 32 33 42 43 45 46 47 50 51 52 54 55 56 58 59 60 65 66 68 69 70 109 142 143 145 146 147 150 151 152 154 155 156 158 159 160 165 166 168 169 170
1 5 7 10 13 14 15 16 17 18 20 22 23 27 28 29 30 32 33 42 43 44 46 47 49 51 52 53 55 56 57 59 60 65 66 67 69 70 110 142 143 144 146 147 149 151 152 153 155 156 157 159 160 165 166 167 169 170
7 9 10 16 17 19 21 22 23 24 25 27 30 31 33 44 45 47 53 54 56 57 58 60 61 62 64 67 68 70 111 144 145 147 153 154 156 157 158 160 161 162 164 167 168 170
2 5 7 9 11 12 13 16 17 18 20 22 23 24 25 26 29 30 31 32 34 43 44 45 46 48 53 54 55 57 58 59 61 62 63 66 67 68 69 71 112 143 144 145 146 148 153 154 155 157 158 159 161 162 163 166 167 168 169 171
3 5 9 10 11 13 14 17 18 19 20 21 23 25 26 27 29 31 32 33 34 43 45 46 47 48 54 55 56 58 59 60 62 63 64 66 68 69 70 71 113 143 145 146 147 148 154 155 156 158 159 160 162 163 164 166 168 169 170 171
4 5 7 10 11 13 15 16 18 19 20 21 22 24 26 27 29 30 32 33 34 43 44 46 47 48 53 55 56 57 59 60 61 63 64 66 67 69 70 71 114 143 144 146 147 148 153 155 156 157 159 160 161 163 164 166 167 169 170 171
7 9 10 12 15 16 20 21 23 25 26 27 30 31 33 44 45 47 49 50 52 57 58 60 61 62 64 67 68 70 115 144 145 147 149 150 152 157 158 160 161 162 164 167 168 170
1 7 9 11 12 13 14 17 20 21 22 24 26 27 28 30 31 32 34 42 44 45 46 48 49 50 51 57 58 59 61 62 63 65 67 68 69 71 116 142 144 145 146 148 149 150 151 157 158 159 161 162 163 165 167 168 169 171
1 6 9 10 11 12 13 14 15 18 21 22 23 24 25 27 28 31 32 33 34 42 45 46 47 48 50 51 52 58 59 60 62 63 64 65 68 69 70 71 117 142 145 146 147 148 150 151 152 158 159 160 162 163 164 165 168 169 170 171
1 7 10 11 13 14 15 19 20 22 23 24 25 26 28 30 32 33 34 42 44 46 47 48 49 51 52 57 59 60 61 63 64 65 67 69 70 71 118 142 144 146 147 148 149 151 152 157 159 160 161 163 164 165 167 169 170 171
1 6 8 12 14 15 17 18 19 25 26 27 29 32 34 35 36 41 50 51 52 54 55 56 62 63 64 65 66 71 121 135 136 141 150 151 152 154 155 156 162 163 164 165 166 171
2 3 4 5 8 12 14 15 17 18 19 21 22 23 28 31 32 33 34 35 36 38 39 40 50 51 52 54 55 56 58 59 60 65 66 68 69 70 125 135 136 138 139 140 150 151 152 154 155 156 158 159 160 165 166 168 169 170
2 4 7 16 17 19 20 21 23 24 25 27 31 32 33 37 38 40 53 54 56 57 58 60 61 62 64 67 68 70 127 137 138 140 153 154 156 157 158 160 161 162 164 167 168 170
2 3 6 8 9 16 17 18 20 21 22 24 25 26 29 30 32 33 34 36 37 38 39 41 53 54 55 57 58 59 61 62 63 66 67 68 69 71 128 136 137 138 139 141 153 154 155 157 158 159 161 162 163 166 167 168 169 171
2 3 4 6 8 13 17 18 19 21 22 23 25 26 27 28 29 30 31 33 34 36 38 39 40 41 54 55 56 58 59 60 62 63 64 66 68 69 70 71 129 136 138 139 140 141 154 155 156 158 159 160 162 163 164 166 168 169 170 171
3 4 6 8 10 16 18 19 20 22 23 24 26 27 29 30 31 32 34 36 37 39 40 41 53 55 56 57 59 60 61 63 64 66 67 69 70 71 130 136 137 139 140 141 153 155 156 157 159 160 161 163 164 166 167 169 170 171
2 3 4 6 11 12 14 15 21 22 23 25 26 27 28 29 31 32 33 35 38 39 40 41 50 51 52 58 59 60 62 63 64 65 68 69 70 71 133 135 138 139 140 141 150 151 152 158 159 160 162 163 164 165 168 169 170 171
1 5 6 8 11 28 29 34 36 39 41 42 43 48 51 65 66 71 72 73 74 76 77 78 84 85 86 88 89 90 92 93 94 100 101 102 120 121 122 124 125 126 132 133 134 135
1 2 3 4 5 8 9 10 13 28 29 31 32 33 35 38 39 40 41 42 43 45 46 47 55 65 66 68 69 70 72 73 74 76 77 78 80 81 82 88 89 90 92 93 94 96 97 98 120 121 122 124 125 126 128 129 130 136
2 4 7 9 10 30 31 33 38 39 40 44 45 47 57 67 68 70 75 76 78 79 80 82 83 84 86 91 92 94 95 96 98 99 100 102 123 124 126 127 128 130 131 132 134 137
2 3 5 6 7 8 9 11 13 29 30 31 32 34 36 37 39 40 41 43 44 45 46 48 58 66 67 68 69 71 75 76 77 79 80 81 83 84 85 91 92 93 95 96 97 99 100 101 123 124 125 127 128 129 131 132 133 138
2 3 4 5 6 8 9 10 11 13 29 31 32 33 34 35 36 37 38 40 41 43 45 46 47 48 59 66 68 69 70 71 76 77 78 80 81 82 84 85 86 92 93 94 96 97 98 100 101 102 124 125 126 128 129 130 132 133 134 139
3 4 5 6 7 8 10 11 13 29 30 32 33 34 36 37 38 39 41 43 44 46 47 48 60 66 67 69 70 71 75 77 78 79 81 82 83 85 86 91 93 94 95 97 98 99 101 102 123 125 126 127 129 130 131 133 134 140
1 2 3 4 6 9 10 11 13 28 31 32 33 34 35 36 38 39 40 42 45 46 47 48 63 65 68 69 70 71 72 73 74 80 81 82 84 85 86 88 89 90 96 97 98 100 101 102 120 121 122 128 129 130 132 133 134 141
1 5 6 8 11 12 14 15 17 18 19 25 26 27 35 36 41 43 46 48 50 51 52 54 55 56 62 63 64 65 72 73 74 76 77 78 84 85 86 88 89 90 92 93 94 100 101 102 104 105 106 108 109 110 116 117 118 142
1 2 3 4 5 8 9 10 12 13 14 15 17 18 19 21 22 23 35 36 38 39 40 42 45 46 47 48 50 51 52 54 55 56 58 59 60 66 72 73 74 76 77 78 80 81 82 88 89 90 92 93 94 96 97 98 104 105 106 108 109 110 112 113 114 143
2 4 7 9 10 16 17 19 20 21 23 24 25 27 37 38 40 45 46 47 53 54 56 57 58 60 61 62 64 67 75 76 78 79 80 82 83 84 86 91 92 94 95 96 98 99 100 102 107 108 110 111 112 114 115 116 118 144
2 3 5 6 7 8 9 11 13 16 17 18 20 21 22 24 25 26 36 37 38 39 41 43 44 46 47 48 53 54 55 57 58 59 61 62 63 68 75 76 77 79 80 81 83 84 85 91 92 93 95 96 97 99 100 101 107 108 109 111 112 113 115 116 117 145
2 3 4 5 6 8 9 10 11 13 17 18 19 21 22 23 25 26 27 36 38 39 40 41 42 43 44 45 47 48 54 55 56 58 59 60 62 63 64 69 76 77 78 80 81 82 84 85 86 92 93 94 96 97 98 100 101 102 108 109 110 112 113 114 116 117 118 146
3 4 5 6 7 8 10 11 13 16 18 19 20 22 23 24 26 27 36 37 39 40 41 43 44 45 46 48 53 55 56 57 59 60 61 63 64 70 75 77 78 79 81 82 83 85 86 91 93 94 95 97 98 99 101 102 107 109 110 111 113 114 115 117 118 147
1 2 3 4 6 9 10 11 12 13 14 15 21 22 23 25 26 27 35 38 39 40 41 42 43 45 46 47 50 51 52 58 59 60 62 63 64 71 72 73 74 80 81 82 84 85 86 88 89 90 96 97 98 100 101 102 104 105 106 112 113 114 116 117 118 148
12 15 16 17 19 24 25 27 50 51 52 53 54 56 57 61 62 64 87 88 90 91 92 94 99 100 102 103 104 106 107 108 110 115 116 118 119 120 122 123 124 126 131 132 134 149
1 5 11 12 14 16 17 18 24 25 26 28 29 34 42 43 48 49 51 52 53 54 55 58 61 62 63 65 66 71 87 88 89 91 92 93 99 100 101 103 104 105 107 108 109 115 116 117 119 120 121 123 124 125 131 132 133 150
1 5 11 12 14 15 17 18 19 25 26 27 28 29 34 35 42 43 48 49 50 52 54 55 56 59 62 63 64 65 66 71 88 89 90 92 93 94 100 101 102 104 105 106 108 109 110 116 117 118 120 121 122 124 125 126 132 133 134 151
1 5 11 14 15 16 18 19 24 26 27 28 29 34 42 43 48 49 50 51 53 55 56 60 61 63 64 65 66 71 87 89 90 91 93 94 99 101 102 103 105 106 107 109 110 115 117 118 119 121 122 123 125 126 131 133 134 152
7 9 10 12 15 16 17 19 20 21 23 30 31 33 44 45 47 49 50 52 54 55 56 57 58 60 61 67 68 70 87 88 90 91 92 94 95 96 98 103 104 106 107 108 110 111 112 114 119 120 122 123 124 126 127 128 130 153
1 5 7 9 12 13 14 16 17 18 20 21 22 28 29 30 31 32 42 43 44 45 46 49 50 51 53 55 56 57 58 59 62 65 66 67 68 69 87 88 89 91 92 93 95 96 97 103 104 105 107 108 109 111 112 113 119 120 121 123 124 125 127 128 129 154
1 5 9 10 12 13 14 15 17 18 19 21 22 23 28 29 31 32 33 36 42 43 45 46 47 50 51 52 53 54 56 58 59 60 63 65 66 68 69 70 88 89 90 92 93 94 96 97 98 104 105 106 108 109 110 112 113 114 120 121 122 124 125 126 128 129 130 155
1 5 7 10 13 14 15 16 18 19 20 22 23 28 29 30 32 33 42 43 44 46 47 49 51 52 53 54 55 57 59 60 64 65 66 67 69 70 87 89 90 91 93 94 95 97 98 103 105 106 107 109 110 111 113 114 119 121 122 123 125 126 127 129 130 156
7 9 10 16 17 19 20 21 23 24 25 27 30 31 33 37 44 45 47 49 53 54 56 58 59 60 61 62 64 67 68 70 91 92 94 95 96 98 99 100 102 107 108 110 111 112 114 115 116 118 123 124 126 127 128 130 131 132 134 157
5 7 9 11 13 16 17 18 20 21 22 24 25 26 29 30 31 32 34 38 43 44 45 46 48 50 53 54 55 57 59 60 61 62 63 66 67 68 69 71 91 92 93 95 96 97 99 100 101 107 108 109 111 112 113 115 116 117 123 124 125 127 128 129 131 132 133 158
5 9 10 11 13 17 18 19 21 22 23 25 26 27 29 31 32 33 34 39 43 45 46 47 48 51 54 55 56 57 58 60 62 63 64 66 68 69 70 71 92 93 94 96 97 98 100 101 102 108 109 110 112 113 114 116 117 118 124 125 126 128 129 130 132 133 134 159
5 7 10 11 13 16 18 19 20 22 23 24 26 27 29 30 32 33 34 40 43 44 46 47 48 52 53 55 56 57 58 59 61 63 64 66 67 69 70 71 91 93 94 95 97 98 99 101 102 107 109 110 111 113 114 115 117 118 123 125 126 127 129 130 131 133 134 160
7 9 10 12 15 20 21 23 24 25 27 30 31 33 44 45 47 49 50 52 53 57 58 60 62 63 64 67 68 70 87 88 90 95 96 98 99 100 102 103 104 106 111 112 114 115 116 118 119 120 122 127 128 130 131 132 134 161
1 7 9 11 12 13 14 20 21 22 24 25 26 28 30 31 32 34 42 44 45 46 48 49 50 51 54 57 58 59 61 63 64 65 67 68 69 71 87 88 89 95 96 97 99 100 101 103 104 105 111 112 113 115 116 117 119 120 121 127 128 129 131 132 133 162
1 9 10 11 12 13 14 15 21 22 23 25 26 27 28 31 32 33 34 41 42 45 46 47 48 50 51 52 55 58 59 60 61 62 64 65 68 69 70 71 88 89 90 96 97 98 100 101 102 104 105 106 112 113 114 116 117 118 120 121 122 128 129 130 132 133 134 163
1 7 10 11 13 14 15 20 22 23 24 26 27 28 30 32 33 34 42 44 46 47 48 49 51 52 56 57 59 60 61 62 63 65 67 69 70 71 87 89 90 95 97 98 99 101 102 103 105 106 111 113 114 115 117 118 119 121 122 127 129 130 131 133 134 164
6 8 12 14 15 17 18 19 25 26 27 28 29 34 35 36 41 42 50 51 52 54 55 56 62 63 64 66 69 71 72 73 74 76 77 78 84 85 86 104 105 106 108 109 110 116 117 118 120 121 122 124 125 126 132 133 134 165
2 3 4 8 12 14 15 17 18 19 21 22 23 28 29 31 32 33 35 36 38 39 40 43 50 51 52 54 55 56 58 59 60 65 68 69 70 71 72 73 74 76 77 78 80 81 82 104 105 106 108 109 110 112 113 114 120 121 122 124 125 126 128 129 130 166
2 4 16 17 19 20 21 23 24 25 27 30 31 33 37 38 40 44 53 54 56 57 58 60 61 62 64 68 69 70 75 76 78 79 80 82 83 84 86 107 108 110 111 112 114 115 116 118 123 124 126 127 128 130 131 132 134 167
2 3 6 8 16 17 18 20 21 22 24 25 26 29 30 31 32 34 36 37 38 39 41 45 53 54 55 57 58 59 61 62 63 66 67 69 70 71 75 76 77 79 80 81 83 84 85 107 108 109 111 112 113 115 116 117 123 124 125 127 128 129 131 132 133 168
2 3 4 6 8 17 18 19 21 22 23 25 26 27 29 31 32 33 34 36 38 39 40 41 46 54 55 56 58 59 60 62 63 64 65 66 67 68 70 71 76 77 78 80 81 82 84 85 86 108 109 110 112 113 114 116 117 118 124 125 126 128 129 130 132 133 134 169
3 4 6 8 16 18 19 20 22 23 24 26 27 29 30 32 33 34 36 37 39 40 41 47 53 55 56 57 59 60 61 63 64 66 67 68 69 71 75 77 78 79 81 82 83 85 86 107 109 110 111 113 114 115 117 118 123 125 126 127 129 130 131 133 134 170
2 3 4 6 12 14 15 21 22 23 25 26 27 28 31 32 33 34 35 38 39 40 41 48 50 51 52 58 59 60 62 63 64 65 66 68 69 70 72 73 74 80 81 82 84 85 86 104 105 106 112 113 114 116 117 118 120 121 122 128 129 130 132 133 134 171
35 36 41 42 43 48 65 66 71 73 74 75 76 77 80 83 84 85 87 88 89 91 92 93 99 100 101 104 119 120 121 123 124 125 131 132 133 135 136 141 142 143 148 165 166 171
35 36 41 42 43 48 65 66 71 72 74 76 77 78 81 84 85 86 88 89 90 92 93 94 100 101 102 105 120 121 122 124 125 126 132 133 134 135 136 141 142 143 148 165 166 171
35 36 41 42 43 48 65 66 71 72 73 75 77 78 82 83 85 86 87 89 90 91 93 94 99 101 102 106 119 121 122 123 125 126 131 133 134 135 136 141 142 143 148 165 166 171
37 38 40 44 45 47 67 68 70 72 74 76 77 78 79 80 82 83 87 88 90 91 92 94 95 96 98 107 119 120 122 123 124 126 127 128 130 137 138 140 144 145 147 167 168 170
35 36 37 38 39 42 43 44 45 46 65 66 67 68 69 72 73 75 77 78 79 80 81 84 87 88 89 91 92 93 95 96 97 108 119 120 121 123 124 125 127 128 129 135 136 137 138 139 142 143 144 145 146 165 166 167 168 169
8 35 36 38 39 40 42 43 45 46 47 65 66 68 69 70 72 73 74 75 76 78 80 81 82 85 88 89 90 92 93 94 96 97 98 109 120 121 122 124 125 126 128 129 130 135 136 138 139 140 142 143 145 146 147 165 166 168 169 170
35 36 37 39 40 42 43 44 46 47 65 66 67 69 70 73 74 75 76 77 79 81 82 86 87 89 90 91 93 94 95 97 98 110 119 121 122 123 125 126 127 129 130 135 136 137 139 140 142 143 144 146 147 165 166 167 169 170
37 38 40 44 45 47 67 68 70 75 76 78 80 81 82 83 84 86 91 92 94 95 96 98 99 100 102 111 123 124 126 127 128 130 131 132 134 137 138 140 144 145 147 167 168 170
2 36 37 38 39 41 43 44 45 46 48 66 67 68 69 71 72 75 76 77 79 81 82 83 84 85 91 92 93 95 96 97 99 100 101 112 123 124 125 127 128 129 131 132 133 136 137 138 139 141 143 144 145 146 148 166 167 168 169 171
3 36 38 39 40 41 43 45 46 47 48 66 68 69 70 71 73 76 77 78 79 80 82 84 85 86 92 93 94 96 97 98 100 101 102 113 124 125 126 128 129 130 132 133 134 136 138 139 140 141 143 145 146 147 148 166 168 169 170 171
4 36 37 39 40 41 43 44 46 47 48 66 67 69 70 71 74 75 77 78 79 80 81 83 85 86 91 93 94 95 97 98 99 101 102 114 123 125 126 127 129 130 131 133 134 136 137 139 140 141 143 144 146 147 148 166 167 169 170 171
37 38 40 44 45 47 67 68 70 72 74 75 79 80 82 84 85 86 87 88 90 95 96 98 99 100 102 115 119 120 122 127 128 130 131 132 134 137 138 140 144 145 147 167 168 170
35 37 38 39 41 42 44 45 46 48 65 67 68 69 71 72 73 76 79 80 81 83 85 86 87 88 89 95 96 97 99 100 101 116 119 120 121 127 128 129 131 132 133 135 137 138 139 141 142 144 145 146 148 165 167 168 169 171
6 35 38 39 40 41 42 45 46 47 48 65 68 69 70 71 72 73 74 77 80 81 82 83 84 86 88 89 90 96 97 98 100 101 102 117 120 121 122 128 129 130 132 133 134 135 138 139 140 141 142 145 146 147 148 165 168 169 170 171
35 37 39 40 41 42 44 46 47 48 65 67 69 70 71 73 74 78 79 81 82 83 84 85 87 89 90 95 97 98 99 101 102 118 119 121 122 127 129 130 131 133 134 135 137 139 140 141 142 144 146 147 148 165 167 169 170 171
49 50 52 53 54 56 61 62 64 72 74 75 76 78 83 84 86 88 89 90 91 92 94 95 99 100 102 103 104 106 107 108 110 115 116 118 119 149 150 152 153 154 156 161 162 164
35 36 41 42 43 48 49 50 51 53 54 55 61 62 63 72 73 75 76 77 83 84 85 87 89 90 91 92 93 96 99 100 101 103 104 105 107 108 109 115 116 117 120 135 136 141 142 143 148 149 150 151 153 154 155 161 162 163
1 35 36 41 42 43 48 50 51 52 54 55 56 62 63 64 72 73 74 76 77 78 84 85 86 87 88 90 92 93 94 97 100 101 102 104 105 106 108 109 110 116 117 118 121 135 136 141 142 143 148 150 151 152 154 155 156 162 163 164
35 36 41 42 43 48 49 51 52 53 55 56 61 63 64 73 74 75 77 78 83 85 86 87 88 89 91 93 94 98 99 101 102 103 105 106 107 109 110 115 117 118 122 135 136 141 142 143 148 149 151 152 153 155 156 161 163 164
37 38 40 44 45 47 49 50 52 53 54 56 57 58 60 72 74 75 76 78 79 80 82 87 88 90 92 93 94 95 96 98 99 103 104 106 107 108 110 111 112 114 123 137 138 140 144 145 147 149 150 152 153 154 156 157 158 160
35 36 37 38 39 42 43 44 45 46 49 50 51 53 54 55 57 58 59 72 73 75 76 77 79 80 81 87 88 89 91 93 94 95 96 97 100 103 104 105 107 108 109 111 112 113 124 135 136 137 138 139 142 143 144 145 146 149 150 151 153 154 155 157 158 159
5 35 36 38 39 40 42 43 45 46 47 50 51 52 54 55 56 58 59 60 72 73 74 76 77 78 80 81 82 88 89 90 91 92 94 96 97 98 101 104 105 106 108 109 110 112 113 114 125 135 136 138 139 140 142 143 145 146 147 150 151 152 154 155 156 158 159 160
35 36 37 39 40 42 43 44 46 47 49 51 52 53 55 56 57 59 60 73 74 75 77 78 79 81 82 87 89 90 91 92 93 95 97 98 102 103 105 106 107 109 110 111 113 114 126 135 136 137 139 140 142 143 144 146 147 149 151 152 153 155 156 157 159 160
7 37 38 40 44 45 47 53 54 56 57 58 60 61 62 64 75 76 78 79 80 82 83 84 86 87 91 92 94 96 97 98 99 100 102 107 108 110 111 112 114 115 116 118 127 137 138 140 144 145 147 153 154 156 157 158 160 161 162 164
9 36 37 38 39 41 43 44 45 46 48 53 54 55 57 58 59 61 62 63 75 76 77 79 80 81 83 84 85 88 91 92 93 95 97 98 99 100 101 107 108 109 111 112 113 115 116 117 128 136 137 138 139 141 143 144 145 146 148 153 154 155 157 158 159 161 162 163
13 36 38 39 40 41 43 45 46 47 48 54 55 56 58 59 60 62 63 64 76 77 78 80 81 82 84 85 86 89 92 93 94 95 96 98 100 101 102 108 109 110 112 113 114 116 117 118 129 136 138 139 140 141 143 145 146 147 148 154 155 156 158 159 160 162 163 164
10 36 37 39 40 41 43 44 46 47 48 53 55 56 57 59 60 61 63 64 75 77 78 79 81 82 83 85 86 90 91 93 94 95 96 97 99 101 102 107 109 110 111 113 114 115 117 118 130 136 137 139 140 141 143 144 146 147 148 153 155 156 157 159 160 161 163 164
37 38 40 44 45 47 49 50 52 57 58 60 61 62 64 72 74 79 80 82 83 84 86 87 88 90 91 95 96 98 100 101 102 103 104 106 111 112 114 115 116 118 131 137 138 140 144 145 147 149 150 152 157 158 160 161 162 164
35 37 38 39 41 42 44 45 46 48 49 50 51 57 58 59 61 62 63 72 73 79 80 81 83 84 85 87 88 89 92 95 96 97 99 101 102 103 104 105 111 112 113 115 116 117 132 135 137 138 139 141 142 144 145 146 148 149 150 151 157 158 159 161 162 163
11 35 38 39 40 41 42 45 46 47 48 50 51 52 58 59 60 62 63 64 72 73 74 80 81 82 84 85 86 88 89 90 93 96 97 98 99 100 102 104 105 106 112 113 114 116 117 118 133 135 138 139 140 141 142 145 146 147 148 150 151 152 158 159 160 162 163 164
35 37 39 40 41 42 44 46 47 48 49 51 52 57 59 60 61 63 64 73 74 79 81 82 83 85 86 87 89 90 94 95 97 98 99 100 101 103 105 106 111 113 114 115 117 118 134 135 137 139 140 141 142 144 146 147 148 149 151 152 157 159 160 161 163 164
49 50 52 53 54 56 61 62 64 87 88 90 91 92 94 99 100 102 104 105 106 107 108 110 111 115 116 118 119 120 122 123 124 126 131 132 134 149 150 152 153 154 156 161 162 164
12 42 43 48 49 50 51 53 54 55 61 62 63 65 66 71 72 87 88 89 91 92 93 99 100 101 103 105 106 107 108 109 112 115 116 117 119 120 121 123 124 125 131 132 133 142 143 148 149 150 151 153 154 155 161 162 163 165 166 171
14 42 43 48 50 51 52 54 55 56 62 63 64 65 66 71 73 88 89 90 92 93 94 100 101 102 103 104 106 108 109 110 113 116 117 118 120 121 122 124 125 126 132 133 134 142 143 148 150 151 152 154 155 156 162 163 164 165 166 171
15 42 43 48 49 51 52 53 55 56 61 63 64 65 66 71 74 87 89 90 91 93 94 99 101 102 103 104 105 107 109 110 114 115 117 118 119 121 122 123 125 126 131 133 134 142 143 148 149 151 152 153 155 156 161 163 164 165 166 171
16 44 45 47 49 50 52 53 54 56 57 58 60 67 68 70 75 87 88 90 91 92 94 95 96 98 103 104 106 108 109 110 111 112 114 115 119 120 122 123 124 126 127 128 130 144 145 147 149 150 152 153 154 156 157 158 160 167 168 170
17 42 43 44 45 46 49 50 51 53 54 55 57 58 59 65 66 67 68 69 76 87 88 89 91 92 93 95 96 97 103 104 105 107 109 110 111 112 113 116 119 120 121 123 124 125 127 128 129 142 143 144 145 146 149 150 151 153 154 155 157 158 159 165 166 167 168 169
18 42 43 45 46 47 50 51 52 54 55 56 58 59 60 65 66 68 69 70 77 88 89 90 92 93 94 96 97 98 104 105 106 107 108 110 112 113 114 117 120 121 122 124 125 126 128 129 130 142 143 145 146 147 150 151 152 154 155 156 158 159 160 165 166 168 169 170
19 42 43 44 46 47 49 51 52 53 55 56 57 59 60 65 66 67 69 70 78 87 89 90 91 93 94 95 97 98 103 105 106 107 108 109 111 113 114 118 119 121 122 123 125 126 127 129 130 142 143 144 146 147 149 151 152 153 155 156 157 159 160 165 166 167 169 170
20 44 45 47 53 54 56 57 58 60 61 62 64 67 68 70 79 91 92 94 95 96 98 99 100 102 103 107 108 110 112 113 114 115 116 118 123 124 126 127 128 130 131 132 134 144 145 147 153 154 156 157 158 160 161 162 164 167 168 170
21 43 44 45 46 48 53 54 55 57 58 59 61 62 63 66 67 68 69 71 80 91 92 93 95 96 97 99 100 101 104 107 108 109 111 113 114 115 116 117 123 124 125 127 128 129 131 132 133 143 144 145 146 148 153 154 155 157 158 159 161 162 163 166 167 168 169 171
22 43 45 46 47 48 54 55 56 58 59 60 62 63 64 66 68 69 70 71 81 92 93 94 96 97 98 100 101 102 105 108 109 110 111 112 114 116 117 118 124 125 126 128 129 130 132 133 134 143 145 146 147 148 154 155 156 158 159 160 162 163 164 166 168 169 170 171
23 43 44 46 47 48 53 55 56 57 59 60 61 63 64 66 67 69 70 71 82 91 93 94 95 97 98 99 101 102 106 107 109 110 111 112 113 115 117 118 123 125 126 127 129 130 131 133 134 143 144 146 147 148 153 155 156 157 159 160 161 163 164 166 167 169 170 171
24 44 45 47 49 50 52 57 58 60 61 62 64 67 68 70 83 87 88 90 95 96 98 99 100 102 103 104 106 107 111 112 114 116 117 118 119 120 122 127 128 130 131 132 134 144 145 147 149 150 152 157 158 160 161 162 164 167 168 170
25 42 44 45 46 48 49 50 51 57 58 59 61 62 63 65 67 68 69 71 84 87 88 89 95 96 97 99 100 101 103 104 105 108 111 112 113 115 117 118 119 120 121 127 128 129 131 132 133 142 144 145 146 148 149 150 151 157 158 159 161 162 163 165 167 168 169 171
26 42 45 46 47 48 50 51 52 58 59 60 62 63 64 65 68 69 70 71 85 88 89 90 96 97 98 100 101 102 104 105 106 109 112 113 114 115 116 118 120 121 122 128 129 130 132 133 134 142 145 146 147 148 150 151 152 158 159 160 162 163 164 165 168 169 170 171
27 42 44 46 47 48 49 51 52 57 59 60 61 63 64 65 67 69 70 71 86 87 89 90 95 97 98 99 101 102 103 105 106 110 111 113 114 115 116 117 119 121 122 127 129 130 131 133 134 142 144 146 147 148 149 151 152 157 159 160 161 163 164 165 167 169 170 171
49 50 52 53 54 56 61 62 64 72 74 75 76 78 83 84 86 87 103 104 106 107 108 110 115 116 118 120 121 122 123 124 126 127 131 132 134 149 150 152 153 154 156 161 162 164
35 36 41 49 50 51 53 54 55 61 62 63 65 66 71 72 73 75 76 77 83 84 85 88 103 104 105 107 108 109 115 116 117 119 121 122 123 124 125 128 131 132 133 135 136 141 149 150 151 153 154 155 161 162 163 165 166 171
28 35 36 41 50 51 52 54 55 56 62 63 64 65 66 71 72 73 74 76 77 78 84 85 86 89 104 105 106 108 109 110 116 117 118 119 120 122 124 125 126 129 132 133 134 135 136 141 150 151 152 154 155 156 162 163 164 165 166 171
35 36 41 49 51 52 53 55 56 61 63 64 65 66 71 73 74 75 77 78 83 85 86 90 103 105 106 107 109 110 115 117 118 119 120 121 123 125 126 130 131 133 134 135 136 141 149 151 152 153 155 156 161 163 164 165 166 171
37 38 40 49 50 52 53 54 56 57 58 60 67 68 70 72 74 75 76 78 79 80 82 91 103 104 106 107 108 110 111 112 114 119 120 122 124 125 126 127 128 130 131 137 138 140 149 150 152 153 154 156 157 158 160 167 168 170
35 36 37 38 39 49 50 51 53 54 55 57 58 59 65 66 67 68 69 72 73 75 76 77 79 80 81 92 103 104 105 107 108 109 111 112 113 119 120 121 123 125 126 127 128 129 132 135 136 137 138 139 149 150 151 153 154 155 157 158 159 165 166 167 168 169
29 35 36 38 39 40 50 51 52 54 55 56 58 59 60 65 66 68 69 70 72 73 74 76 77 78 80 81 82 93 104 105 106 108 109 110 112 113 114 120 121 122 123 124 126 128 129 130 133 135 136 138 139 140 150 151 152 154 155 156 158 159 160 165 166 168 169 170
35 36 37 39 40 49 51 52 53 55 56 57 59 60 65 66 67 69 70 73 74 75 77 78 79 81 82 94 103 105 106 107 109 110 111 113 114 119 121 122 123 124 125 127 129 130 134 135 136 137 139 140 149 151 152 153 155 156 157 159 160 165 166 167 169 170
30 37 38 40 53 54 56 57 58 60 61 62 64 67 68 70 75 76 78 79 80 82 83 84 86 95 107 108 110 111 112 114 115 116 118 119 123 124 126 128 129 130 131 132 134 137 138 140 153 154 156 157 158 160 161 162 164 167 168 170
31 36 37 38 39 41 53 54 55 57 58 59 61 62 63 66 67 68 69 71 75 76 77 79 80 81 83 84 85 96 107 108 109 111 112 113 115 116 117 120 123 124 125 127 129 130 131 132 133 136 137 138 139 141 153 154 155 157 158 159 161 162 163 166 167 168 169 171
32 36 38 39 40 41 54 55 56 58 59 60 62 63 64 66 68 69 70 71 76 77 78 80 81 82 84 85 86 97 108 109 110 112 113 114 116 117 118 121 124 125 126 127 128 130 132 133 134 136 138 139 140 141 154 155 156 158 159 160 162 163 164 166 168 169 170 171
33 36 37 39 40 41 53 55 56 57 59 60 61 63 64 66 67 69 70 71 75 77 78 79 81 82 83 85 86 98 107 109 110 111 113 114 115 117 118 122 123 125 126 127 128 129 131 133 134 136 137 139 140 141 153 155 156 157 159 160 161 163 164 166 167 169 170 171
37 38 40 49 50 52 57 58 60 61 62 64 67 68 70 72 74 79 80 82 83 84 86 99 103 104 106 111 112 114 115 116 118 119 120 122 123 127 128 130 132 133 134 137 138 140 149 150 152 157 158 160 161 162 164 167 168 170
35 37 38 39 41 49 50 51 57 58 59 61 62 63 65 67 68 69 71 72 73 79 80 81 83 84 85 100 103 104 105 111 112 113 115 116 117 119 120 121 124 127 128 129 131 133 134 135 137 138 139 141 149 150 151 157 158 159 161 162 163 165 167 168 169 171
34 35 38 39 40 41 50 51 52 58 59 60 62 63 64 65 68 69 70 71 72 73 74 80 81 82 84 85 86 101 104 105 106 112 113 114 116 117 118 120 121 122 125 128 129 130 131 132 134 135 138 139 140 141 150 151 152 158 159 160 162 163 164 165 168 169 170 171
35 37 39 40 41 49 51 52 57 59 60 61 63 64 65 67 69 70 71 73 74 79 81 82 83 85 86 102 103 105 106 111 113 114 115 117 118 119 121 122 126 127 129 130 131 132 133 135 137 139 140 141 149 151 152 157 159 160 161 163 164 165 167 169 170 171
1 5 6 8 11 28 29 34 35 72 73 74 76 77 78 84 85 86 88 89 90 92 93 94 100 101 102 120 121 122 124 125 126 132 133 134 136 139 141 142 143 148 151 165 166 171
1 2 3 4 5 8 9 10 13 28 29 31 32 33 36 72 73 74 76 77 78 80 81 82 88 89 90 92 93 94 96 97 98 120 121 122 124 125 126 128 129 130 135 138 139 140 141 142 143 145 146 147 155 165 166 168 169 170
2 4 7 9 10 30 31 33 37 75 76 78 79 80 82 83 84 86 91 92 94 95 96 98 99 100 102 123 124 126 127 128 130 131 132 134 138 139 140 144 145 147 157 167 168 170
2 3 5 6 7 8 9 11 13 29 30 31 32 34 38 75 76 77 79 80 81 83 84 85 91 92 93 95 96 97 99 100 101 123 124 125 127 128 129 131 132 133 136 137 139 140 141 143 144 145 146 148 158 166 167 168 169 171
2 3 4 5 6 8 9 10 11 13 29 31 32 33 34 39 76 77 78 80 81 82 84 85 86 92 93 94 96 97 98 100 101 102 124 125 126 128 129 130 132 133 134 135 136 137 138 140 141 143 145 146 147 148 159 166 168 169 170 171
3 4 5 6 7 8 10 11 13 29 30 32 33 34 40 75 77 78 79 81 82 83 85 86 91 93 94 95 97 98 99 101 102 123 125 126 127 129 130 131 133 134 136 137 138 139 141 143 144 146 147 148 160 166 167 169 170 171
1 2 3 4 6 9 10 11 13 28 31 32 33 34 41 72 73 74 80 81 82 84 85 86 88 89 90 96 97 98 100 101 102 120 121 122 128 129 130 132 133 134 135 136 138 139 140 142 145 146 147 148 163 165 168 169 170 171
1 5 6 8 11 12 14 15 17 18 19 25 26 27 42 72 73 74 76 77 78 84 85 86 88 89 90 92 93 94 100 101 102 104 105 106 108 109 110 116 117 118 135 136 141 143 146 148 150 151 152 154 155 156 162 163 164 165
1 2 3 4 5 8 9 10 12 13 14 15 17 18 19 21 22 23 43 72 73 74 76 77 78 80 81 82 88 89 90 92 93 94 96 97 98 104 105 106 108 109 110 112 113 114 135 136 138 139 140 142 145 146 147 148 150 151 152 154 155 156 158 159 160 166
2 4 7 9 10 16 17 19 20 21 23 24 25 27 44 75 76 78 79 80 82 83 84 86 91 92 94 95 96 98 99 100 102 107 108 110 111 112 114 115 116 118 137 138 140 145 146 147 153 154 156 157 158 160 161 162 164 167
2 3 5 6 7 8 9 11 13 16 17 18 20 21 22 24 25 26 45 75 76 77 79 80 81 83 84 85 91 92 93 95 96 97 99 100 101 107 108 109 111 112 113 115 116 117 136 137 138 139 141 143 144 146 147 148 153 154 155 157 158 159 161 162 163 168
2 3 4 5 6 8 9 10 11 13 17 18 19 21 22 23 25 26 27 46 76 77 78 80 81 82 84 85 86 92 93 94 96 97 98 100 101 102 108 109 110 112 113 114 116 117 118 136 138 139 140 141 142 143 144 145 147 148 154 155 156 158 159 160 162 163 164 169
3 4 5 6 7 8 10 11 13 16 18 19 20 22 23 24 26 27 47 75 77 78 79 81 82 83 85 86 91 93 94 95 97 98 99 101 102 107 109 110 111 113 114 115 117 118 136 137 139 140 141 143 144 145 146 148 153 155 156 157 159 160 161 163 164 170
1 2 3 4 6 9 10 11 12 13 14 15 21 22 23 25 26 27 48 72 73 74 80 81 82 84 85 86 88 89 90 96 97 98 100 101 102 104 105 106 112 113 114 116 117 118 135 138 139 140 141 142 143 145 146 147 150 151 152 158 159 160 162 163 164 171
12 15 16 17 19 24 25 27 49 87 88 90 91 92 94 99 100 102 103 104 106 107 108 110 115 116 118 119 120 122 123 124 126 131 132 134 150 151 152 153 154 156 157 161 162 164
1 5 11 12 14 16 17 18 24 25 26 28 29 34 50 87 88 89 91 92 93 99 100 101 103 104 105 107 108 109 115 116 117 119 120 121 123 124 125 131 132 133 142 143 148 149 151 152 153 154 155 158 161 162 163 165 166 171
1 5 11 12 14 15 17 18 19 25 26 27 28 29 34 51 88 89 90 92 93 94 100 101 102 104 105 106 108 109 110 116 117 118 120 121 122 124 125 126 132 133 134 135 142 143 148 149 150 152 154 155 156 159 162 163 164 165 166 171
1 5 11 14 15 16 18 19 24 26 27 28 29 34 52 87 89 90 91 93 94 99 101 102 103 105 106 107 109 110 115 117 118 119 121 122 123 125 126 131 133 134 142 143 148 149 150 151 153 155 156 160 161 163 164 165 166 171
7 9 10 12 15 16 17 19 20 21 23 30 31 33 53 87 88 90 91 92 94 95 96 98 103 104 106 107 108 110 111 112 114 119 120 122 123 124 126 127 128 130 144 145 147 149 150 152 154 155 156 157 158 160 161 167 168 170
1 5 7 9 12 13 14 16 17 18 20 21 22 28 29 30 31 32 54 87 88 89 91 92 93 95 96 97 103 104 105 107 108 109 111 112 113 119 120 121 123 124 125 127 128 129 142 143 144 145 146 149 150 151 153 155 156 157 158 159 162 165 166 167 168 169
1 5 9 10 12 13 14 15 17 18 19 21 22 23 28 29 31 32 33 55 88 89 90 92 93 94 96 97 98 104 105 106 108 109 110 112 113 114 120 121 122 124 125 126 128 129 130 136 142 143 145 146 147 150 151 152 153 154 156 158 159 160 163 165 166 168 169 170
1 5 7 10 13 14 15 16 18 19 20 22 23 28 29 30 32 33 56 87 89 90 91 93 94 95 97 98 103 105 106 107 109 110 111 113 114 119 121 122 123 125 126 127 129 130 142 143 144 146 147 149 151 152 153 154 155 157 159 160 164 165 166 167 169 170
7 9 10 16 17 19 20 21 23 24 25 27 30 31 33 57 91 92 94 95 96 98 99 100 102 107 108 110 111 112 114 115 116 118 123 124 126 127 128 130 131 132 134 137 144 145 147 149 153 154 156 158 159 160 161 162 164 167 168 170
5 7 9 11 13 16 17 18 20 21 22 24 25 26 29 30 31 32 34 58 91 92 93 95 96 97 99 100 101 107 108 109 111 112 113 115 116 117 123 124 125 127 128 129 131 132 133 138 143 144 145 146 148 150 153 154 155 157 159 160 161 162 163 166 167 168 169 171
5 9 10 11 13 17 18 19 21 22 23 25 26 27 29 31 32 33 34 59 92 93 94 96 97 98 100 101 102 108 109 110 112 113 114 116 117 118 124 125 126 128 129 130 132 133 134 139 143 145 146 147 148 151 154 155 156 157 158 160 162 163 164 166 168 169 170 171
5 7 10 11 13 16 18 19 20 22 23 24 26 27 29 30 32 33 34 60 91 93 94 95 97 98 99 101 102 107 109 110 111 113 114 115 117 118 123 125 126 127 129 130 131 133 134 140 143 144 146 147 148 152 153 155 156 157 158 159 161 163 164 166 167 169 170 171
7 9 10 12 15 20 21 23 24 25 27 30 31 33 61 87 88 90 95 96 98 99 100 102 103 104 106 111 112 114 115 116 118 119 120 122 127 128 130 131 132 134 144 145 147 149 150 152 153 157 158 160 162 163 164 167 168 170
1 7 9 11 12 13 14 20 21 22 24 25 26 28 30 31 32 34 62 87 88 89 95 96 97 99 100 101 103 104 105 111 112 113 115 116 117 119 120 121 127 128 129 131 132 133 142 144 145 146 148 149 150 151 154 157 158 159 161 163 164 165 167 168 169 171
1 9 10 11 12 13 14 15 21 22 23 25 26 27 28 31 32 33 34 63 88 89 90 96 97 98 100 101 102 104 105 106 112 113 114 116 117 118 120 121 122 128 129 130 132 133 134 141 142 145 146 147 148 150 151 152 155 158 159 160 161 162 164 165 168 169 170 171
1 7 10 11 13 14 15 20 22 23 24 26 27 28 30 32 33 34 64 87 89 90 95 97 98 99 101 102 103 105 106 111 113 114 115 117 118 119 121 122 127 129 130 131 133 134 142 144 146 147 148 149 151 152 156 157 159 160 161 162 163 165 167 169 170 171
6 8 12 14 15 17 18 19 25 26 27 28 29 34 65 72 73 74 76 77 78 84 85 86 104 105 106 108 109 110 116 117 118 120 121 122 124 125 126 132 133 134 135 136 141 142 150 151 152 154 155 156 162 163 164 166 169 171
2 3 4 8 12 14 15 17 18 19 21 22 23 28 29 31 32 33 66 72 73 74 76 77 78 80 81 82 104 105 106 108 109 110 112 113 114 120 121 122 124 125 126 128 129 130 135 136 138 139 140 143 150 151 152 154 155 156 158 159 160 165 168 169 170 171
2 4 16 17 19 20 21 23 24 25 27 30 31 33 67 75 76 78 79 80 82 83 84 86 107 108 110 111 112 114 115 116 118 123 124 126 127 128 130 131 132 134 137 138 140 144 153 154 156 157 158 160 161 162 164 168 169 170
2 3 6 8 16 17 18 20 21 22 24 25 26 29 30 31 32 34 68 75 76 77 79 80 81 83 84 85 107 108 109 111 112 113 115 116 117 123 124 125 127 128 129 131 132 133 136 137 138 139 141 145 153 154 155 157 158 159 161 162 163 166 167 169 170 171
2 3 4 6 8 17 18 19 21 22 23 25 26 27 29 31 32 33 34 69 76 77 78 80 81 82 84 85 86 108 109 110 112 113 114 116 117 118 124 125 126 128 129 130 132 133 134 136 138 139 140 141 146 154 155 156 158 159 160 162 163 164 165 166 167 168 170 171
3 4 6 8 16 18 19 20 22 23 24 26 27 29 30 32 33 34 70 75 77 78 79 81 82 83 85 86 107 109 110 111 113 114 115 117 118 123 125 126 127 129 130 131 133 134 136 137 139 140 141 147 153 155 156 157 159 160 161 163 164 166 167 168 169 171
2 3 4 6 12 14 15 21 22 23 25 26 27 28 31 32 33 34 71 72 73 74 80 81 82 84 85 86 104 105 106 112 113 114 116 117 118 120 121 122 128 129 130 132 133 134 135 138 139 140 141 148 150 151 152 158 159 160 162 163 164 165 166 168 169 170
